Optimization/timetable_rooms.lp
\* Problem: timetable_rooms *\

Minimize
 TotalRooms: + x(1,1) + x(1,2) + x(1,3) + x(1,4) + x(1,5) + x(1,6)
 + x(1,7) + x(1,8) + x(1,9) + x(1,10) + x(1,11) + x(1,12) + x(1,13)
 + x(1,14) + x(1,15) + x(1,16) + x(1,17) + x(1,18) + x(1,19) + x(1,20)
 + x(1,21) + x(1,22) + x(1,23) + x(1,24) + x(1,25) + x(1,26) + x(1,27)
 + x(1,28) + x(1,29) + x(1,30) + x(1,31) + x(1,32) + x(1,33) + x(1,34)
 + x(1,35) + x(1,36) + x(1,37) + x(1,38) + x(1,39) + x(1,40) + x(1,41)
 + x(1,42) + x(2,1) + x(2,2) + x(2,3) + x(2,4) + x(2,5) + x(2,6)
 + x(2,7) + x(2,8) + x(2,9) + x(2,10) + x(2,11) + x(2,12) + x(2,13)
 + x(2,14) + x(2,15) + x(2,16) + x(2,17) + x(2,18) + x(2,19) + x(2,20)
 + x(2,21) + x(2,22) + x(2,23) + x(2,24) + x(2,25) + x(2,26) + x(2,27)
 + x(2,28) + x(2,29) + x(2,30) + x(2,31) + x(2,32) + x(2,33) + x(2,34)
 + x(2,35) + x(2,36) + x(2,37) + x(2,38) + x(2,39) + x(2,40) + x(2,41)
 + x(2,42) + x(3,1) + x(3,2) + x(3,3) + x(3,4) + x(3,5) + x(3,6)
 + x(3,7) + x(3,8) + x(3,9) + x(3,10) + x(3,11) + x(3,12) + x(3,13)
 + x(3,14) + x(3,15) + x(3,16) + x(3,17) + x(3,18) + x(3,19) + x(3,20)
 + x(3,21) + x(3,22) + x(3,23) + x(3,24) + x(3,25) + x(3,26) + x(3,27)
 + x(3,28) + x(3,29) + x(3,30) + x(3,31) + x(3,32) + x(3,33) + x(3,34)
 + x(3,35) + x(3,36) + x(3,37) + x(3,38) + x(3,39) + x(3,40) + x(3,41)
 + x(3,42) + x(4,1) + x(4,2) + x(4,3) + x(4,4) + x(4,5) + x(4,6)
 + x(4,7) + x(4,8) + x(4,9) + x(4,10) + x(4,11) + x(4,12) + x(4,13)
 + x(4,14) + x(4,15) + x(4,16) + x(4,17) + x(4,18) + x(4,19) + x(4,20)
 + x(4,21) + x(4,22) + x(4,23) + x(4,24) + x(4,25) + x(4,26) + x(4,27)
 + x(4,28) + x(4,29) + x(4,30) + x(4,31) + x(4,32) + x(4,33) + x(4,34)
 + x(4,35) + x(4,36) + x(4,37) + x(4,38) + x(4,39) + x(4,40) + x(4,41)
 + x(4,42)

Subject To
 MinRooms(1): + x(1,1) + x(1,2) + x(1,3) + x(1,4) + x(1,5) + x(1,6)
 + x(1,7) + x(1,8) + x(1,9) + x(1,10) + x(1,11) + x(1,12) + x(1,13)
 + x(1,14) + x(1,15) + x(1,16) + x(1,17) + x(1,18) + x(1,19) + x(1,20)
 + x(1,21) + x(1,22) + x(1,23) + x(1,24) + x(1,25) + x(1,26) + x(1,27)
 + x(1,28) + x(1,29) + x(1,30) + x(1,31) + x(1,32) + x(1,33) + x(1,34)
 + x(1,35) + x(1,36) + x(1,37) + x(1,38) + x(1,39) + x(1,40) + x(1,41)
 + x(1,42) >= 1
 MinRooms(2): + x(2,1) + x(2,2) + x(2,3) + x(2,4) + x(2,5) + x(2,6)
 + x(2,7) + x(2,8) + x(2,9) + x(2,10) + x(2,11) + x(2,12) + x(2,13)
 + x(2,14) + x(2,15) + x(2,16) + x(2,17) + x(2,18) + x(2,19) + x(2,20)
 + x(2,21) + x(2,22) + x(2,23) + x(2,24) + x(2,25) + x(2,26) + x(2,27)
 + x(2,28) + x(2,29) + x(2,30) + x(2,31) + x(2,32) + x(2,33) + x(2,34)
 + x(2,35) + x(2,36) + x(2,37) + x(2,38) + x(2,39) + x(2,40) + x(2,41)
 + x(2,42) >= 1
 MinRooms(3): + x(3,1) + x(3,2) + x(3,3) + x(3,4) + x(3,5) + x(3,6)
 + x(3,7) + x(3,8) + x(3,9) + x(3,10) + x(3,11) + x(3,12) + x(3,13)
 + x(3,14) + x(3,15) + x(3,16) + x(3,17) + x(3,18) + x(3,19) + x(3,20)
 + x(3,21) + x(3,22) + x(3,23) + x(3,24) + x(3,25) + x(3,26) + x(3,27)
 + x(3,28) + x(3,29) + x(3,30) + x(3,31) + x(3,32) + x(3,33) + x(3,34)
 + x(3,35) + x(3,36) + x(3,37) + x(3,38) + x(3,39) + x(3,40) + x(3,41)
 + x(3,42) >= 1
 MinRooms(4): + x(4,1) + x(4,2) + x(4,3) + x(4,4) + x(4,5) + x(4,6)
 + x(4,7) + x(4,8) + x(4,9) + x(4,10) + x(4,11) + x(4,12) + x(4,13)
 + x(4,14) + x(4,15) + x(4,16) + x(4,17) + x(4,18) + x(4,19) + x(4,20)
 + x(4,21) + x(4,22) + x(4,23) + x(4,24) + x(4,25) + x(4,26) + x(4,27)
 + x(4,28) + x(4,29) + x(4,30) + x(4,31) + x(4,32) + x(4,33) + x(4,34)
 + x(4,35) + x(4,36) + x(4,37) + x(4,38) + x(4,39) + x(4,40) + x(4,41)
 + x(4,42) >= 1
 TotalSeats(1): + 32 x(1,1) + 66 x(1,2) + 80 x(1,3) + 100 x(1,4)
 + 45 x(1,5) + 34 x(1,6) + 32 x(1,7) + 80 x(1,8) + 38 x(1,9)
 + 18 x(1,10) + 18 x(1,11) + 28 x(1,12) + 28 x(1,13) + 40 x(1,14)
 + 36 x(1,15) + 40 x(1,16) + 40 x(1,17) + 40 x(1,18) + 40 x(1,19)
 + 60 x(1,20) + 24 x(1,21) + 70 x(1,22) + 120 x(1,23) + 80 x(1,24)
 + 100 x(1,25) + 33 x(1,26) + 33 x(1,27) + 30 x(1,28) + 35 x(1,29)
 + 100 x(1,30) + 20 x(1,31) + 36 x(1,32) + 48 x(1,33) + 24 x(1,34)
 + 48 x(1,35) + 48 x(1,36) + 27 x(1,37) + 19 x(1,38) + 16 x(1,39)
 + 16 x(1,40) + 80 x(1,41) + 140 x(1,42) >= 32
 TotalSeats(2): + 32 x(2,1) + 66 x(2,2) + 80 x(2,3) + 100 x(2,4)
 + 45 x(2,5) + 34 x(2,6) + 32 x(2,7) + 80 x(2,8) + 38 x(2,9)
 + 18 x(2,10) + 18 x(2,11) + 28 x(2,12) + 28 x(2,13) + 40 x(2,14)
 + 36 x(2,15) + 40 x(2,16) + 40 x(2,17) + 40 x(2,18) + 40 x(2,19)
 + 60 x(2,20) + 24 x(2,21) + 70 x(2,22) + 120 x(2,23) + 80 x(2,24)
 + 100 x(2,25) + 33 x(2,26) + 33 x(2,27) + 30 x(2,28) + 35 x(2,29)
 + 100 x(2,30) + 20 x(2,31) + 36 x(2,32) + 48 x(2,33) + 24 x(2,34)
 + 48 x(2,35) + 48 x(2,36) + 27 x(2,37) + 19 x(2,38) + 16 x(2,39)
 + 16 x(2,40) + 80 x(2,41) + 140 x(2,42) >= 41
 TotalSeats(3): + 32 x(3,1) + 66 x(3,2) + 80 x(3,3) + 100 x(3,4)
 + 45 x(3,5) + 34 x(3,6) + 32 x(3,7) + 80 x(3,8) + 38 x(3,9)
 + 18 x(3,10) + 18 x(3,11) + 28 x(3,12) + 28 x(3,13) + 40 x(3,14)
 + 36 x(3,15) + 40 x(3,16) + 40 x(3,17) + 40 x(3,18) + 40 x(3,19)
 + 60 x(3,20) + 24 x(3,21) + 70 x(3,22) + 120 x(3,23) + 80 x(3,24)
 + 100 x(3,25) + 33 x(3,26) + 33 x(3,27) + 30 x(3,28) + 35 x(3,29)
 + 100 x(3,30) + 20 x(3,31) + 36 x(3,32) + 48 x(3,33) + 24 x(3,34)
 + 48 x(3,35) + 48 x(3,36) + 27 x(3,37) + 19 x(3,38) + 16 x(3,39)
 + 16 x(3,40) + 80 x(3,41) + 140 x(3,42) >= 35
 TotalSeats(4): + 32 x(4,1) + 66 x(4,2) + 80 x(4,3) + 100 x(4,4)
 + 45 x(4,5) + 34 x(4,6) + 32 x(4,7) + 80 x(4,8) + 38 x(4,9)
 + 18 x(4,10) + 18 x(4,11) + 28 x(4,12) + 28 x(4,13) + 40 x(4,14)
 + 36 x(4,15) + 40 x(4,16) + 40 x(4,17) + 40 x(4,18) + 40 x(4,19)
 + 60 x(4,20) + 24 x(4,21) + 70 x(4,22) + 120 x(4,23) + 80 x(4,24)
 + 100 x(4,25) + 33 x(4,26) + 33 x(4,27) + 30 x(4,28) + 35 x(4,29)
 + 100 x(4,30) + 20 x(4,31) + 36 x(4,32) + 48 x(4,33) + 24 x(4,34)
 + 48 x(4,35) + 48 x(4,36) + 27 x(4,37) + 19 x(4,38) + 16 x(4,39)
 + 16 x(4,40) + 80 x(4,41) + 140 x(4,42) >= 269
 CoursePerRoom(1): + x(1,1) + x(2,1) + x(3,1) + x(4,1) <= 1
 CoursePerRoom(2): + x(1,2) + x(2,2) + x(3,2) + x(4,2) <= 1
 CoursePerRoom(3): + x(1,3) + x(2,3) + x(3,3) + x(4,3) <= 1
 CoursePerRoom(4): + x(1,4) + x(2,4) + x(3,4) + x(4,4) <= 1
 CoursePerRoom(5): + x(1,5) + x(2,5) + x(3,5) + x(4,5) <= 1
 CoursePerRoom(6): + x(1,6) + x(2,6) + x(3,6) + x(4,6) <= 1
 CoursePerRoom(7): + x(1,7) + x(2,7) + x(3,7) + x(4,7) <= 1
 CoursePerRoom(8): + x(1,8) + x(2,8) + x(3,8) + x(4,8) <= 1
 CoursePerRoom(9): + x(1,9) + x(2,9) + x(3,9) + x(4,9) <= 1
 CoursePerRoom(10): + x(1,10) + x(2,10) + x(3,10) + x(4,10) <= 1
 CoursePerRoom(11): + x(1,11) + x(2,11) + x(3,11) + x(4,11) <= 1
 CoursePerRoom(12): + x(1,12) + x(2,12) + x(3,12) + x(4,12) <= 1
 CoursePerRoom(13): + x(1,13) + x(2,13) + x(3,13) + x(4,13) <= 1
 CoursePerRoom(14): + x(1,14) + x(2,14) + x(3,14) + x(4,14) <= 1
 CoursePerRoom(15): + x(1,15) + x(2,15) + x(3,15) + x(4,15) <= 1
 CoursePerRoom(16): + x(1,16) + x(2,16) + x(3,16) + x(4,16) <= 1
 CoursePerRoom(17): + x(1,17) + x(2,17) + x(3,17) + x(4,17) <= 1
 CoursePerRoom(18): + x(1,18) + x(2,18) + x(3,18) + x(4,18) <= 1
 CoursePerRoom(19): + x(1,19) + x(2,19) + x(3,19) + x(4,19) <= 1
 CoursePerRoom(20): + x(1,20) + x(2,20) + x(3,20) + x(4,20) <= 1
 CoursePerRoom(21): + x(1,21) + x(2,21) + x(3,21) + x(4,21) <= 1
 CoursePerRoom(22): + x(1,22) + x(2,22) + x(3,22) + x(4,22) <= 1
 CoursePerRoom(23): + x(1,23) + x(2,23) + x(3,23) + x(4,23) <= 1
 CoursePerRoom(24): + x(1,24) + x(2,24) + x(3,24) + x(4,24) <= 1
 CoursePerRoom(25): + x(1,25) + x(2,25) + x(3,25) + x(4,25) <= 1
 CoursePerRoom(26): + x(1,26) + x(2,26) + x(3,26) + x(4,26) <= 1
 CoursePerRoom(27): + x(1,27) + x(2,27) + x(3,27) + x(4,27) <= 1
 CoursePerRoom(28): + x(1,28) + x(2,28) + x(3,28) + x(4,28) <= 1
 CoursePerRoom(29): + x(1,29) + x(2,29) + x(3,29) + x(4,29) <= 1
 CoursePerRoom(30): + x(1,30) + x(2,30) + x(3,30) + x(4,30) <= 1
 CoursePerRoom(31): + x(1,31) + x(2,31) + x(3,31) + x(4,31) <= 1
 CoursePerRoom(32): + x(1,32) + x(2,32) + x(3,32) + x(4,32) <= 1
 CoursePerRoom(33): + x(1,33) + x(2,33) + x(3,33) + x(4,33) <= 1
 CoursePerRoom(34): + x(1,34) + x(2,34) + x(3,34) + x(4,34) <= 1
 CoursePerRoom(35): + x(1,35) + x(2,35) + x(3,35) + x(4,35) <= 1
 CoursePerRoom(36): + x(1,36) + x(2,36) + x(3,36) + x(4,36) <= 1
 CoursePerRoom(37): + x(1,37) + x(2,37) + x(3,37) + x(4,37) <= 1
 CoursePerRoom(38): + x(1,38) + x(2,38) + x(3,38) + x(4,38) <= 1
 CoursePerRoom(39): + x(1,39) + x(2,39) + x(3,39) + x(4,39) <= 1
 CoursePerRoom(40): + x(1,40) + x(2,40) + x(3,40) + x(4,40) <= 1
 CoursePerRoom(41): + x(1,41) + x(2,41) + x(3,41) + x(4,41) <= 1
 CoursePerRoom(42): + x(1,42) + x(2,42) + x(3,42) + x(4,42) <= 1

Bounds
 0 <= x(1,1) <= 1
 0 <= x(1,2) <= 1
 0 <= x(1,3) <= 1
 0 <= x(1,4) <= 1
 0 <= x(1,5) <= 1
 0 <= x(1,6) <= 1
 0 <= x(1,7) <= 1
 0 <= x(1,8) <= 1
 0 <= x(1,9) <= 1
 0 <= x(1,10) <= 1
 0 <= x(1,11) <= 1
 0 <= x(1,12) <= 1
 0 <= x(1,13) <= 1
 0 <= x(1,14) <= 1
 0 <= x(1,15) <= 1
 0 <= x(1,16) <= 1
 0 <= x(1,17) <= 1
 0 <= x(1,18) <= 1
 0 <= x(1,19) <= 1
 0 <= x(1,20) <= 1
 0 <= x(1,21) <= 1
 0 <= x(1,22) <= 1
 0 <= x(1,23) <= 1
 0 <= x(1,24) <= 1
 0 <= x(1,25) <= 1
 0 <= x(1,26) <= 1
 0 <= x(1,27) <= 1
 0 <= x(1,28) <= 1
 0 <= x(1,29) <= 1
 0 <= x(1,30) <= 1
 0 <= x(1,31) <= 1
 0 <= x(1,32) <= 1
 0 <= x(1,33) <= 1
 0 <= x(1,34) <= 1
 0 <= x(1,35) <= 1
 0 <= x(1,36) <= 1
 0 <= x(1,37) <= 1
 0 <= x(1,38) <= 1
 0 <= x(1,39) <= 1
 0 <= x(1,40) <= 1
 0 <= x(1,41) <= 1
 0 <= x(1,42) <= 1
 0 <= x(2,1) <= 1
 0 <= x(2,2) <= 1
 0 <= x(2,3) <= 1
 0 <= x(2,4) <= 1
 0 <= x(2,5) <= 1
 0 <= x(2,6) <= 1
 0 <= x(2,7) <= 1
 0 <= x(2,8) <= 1
 0 <= x(2,9) <= 1
 0 <= x(2,10) <= 1
 0 <= x(2,11) <= 1
 0 <= x(2,12) <= 1
 0 <= x(2,13) <= 1
 0 <= x(2,14) <= 1
 0 <= x(2,15) <= 1
 0 <= x(2,16) <= 1
 0 <= x(2,17) <= 1
 0 <= x(2,18) <= 1
 0 <= x(2,19) <= 1
 0 <= x(2,20) <= 1
 0 <= x(2,21) <= 1
 0 <= x(2,22) <= 1
 0 <= x(2,23) <= 1
 0 <= x(2,24) <= 1
 0 <= x(2,25) <= 1
 0 <= x(2,26) <= 1
 0 <= x(2,27) <= 1
 0 <= x(2,28) <= 1
 0 <= x(2,29) <= 1
 0 <= x(2,30) <= 1
 0 <= x(2,31) <= 1
 0 <= x(2,32) <= 1
 0 <= x(2,33) <= 1
 0 <= x(2,34) <= 1
 0 <= x(2,35) <= 1
 0 <= x(2,36) <= 1
 0 <= x(2,37) <= 1
 0 <= x(2,38) <= 1
 0 <= x(2,39) <= 1
 0 <= x(2,40) <= 1
 0 <= x(2,41) <= 1
 0 <= x(2,42) <= 1
 0 <= x(3,1) <= 1
 0 <= x(3,2) <= 1
 0 <= x(3,3) <= 1
 0 <= x(3,4) <= 1
 0 <= x(3,5) <= 1
 0 <= x(3,6) <= 1
 0 <= x(3,7) <= 1
 0 <= x(3,8) <= 1
 0 <= x(3,9) <= 1
 0 <= x(3,10) <= 1
 0 <= x(3,11) <= 1
 0 <= x(3,12) <= 1
 0 <= x(3,13) <= 1
 0 <= x(3,14) <= 1
 0 <= x(3,15) <= 1
 0 <= x(3,16) <= 1
 0 <= x(3,17) <= 1
 0 <= x(3,18) <= 1
 0 <= x(3,19) <= 1
 0 <= x(3,20) <= 1
 0 <= x(3,21) <= 1
 0 <= x(3,22) <= 1
 0 <= x(3,23) <= 1
 0 <= x(3,24) <= 1
 0 <= x(3,25) <= 1
 0 <= x(3,26) <= 1
 0 <= x(3,27) <= 1
 0 <= x(3,28) <= 1
 0 <= x(3,29) <= 1
 0 <= x(3,30) <= 1
 0 <= x(3,31) <= 1
 0 <= x(3,32) <= 1
 0 <= x(3,33) <= 1
 0 <= x(3,34) <= 1
 0 <= x(3,35) <= 1
 0 <= x(3,36) <= 1
 0 <= x(3,37) <= 1
 0 <= x(3,38) <= 1
 0 <= x(3,39) <= 1
 0 <= x(3,40) <= 1
 0 <= x(3,41) <= 1
 0 <= x(3,42) <= 1
 0 <= x(4,1) <= 1
 0 <= x(4,2) <= 1
 0 <= x(4,3) <= 1
 0 <= x(4,4) <= 1
 0 <= x(4,5) <= 1
 0 <= x(4,6) <= 1
 0 <= x(4,7) <= 1
 0 <= x(4,8) <= 1
 0 <= x(4,9) <= 1
 0 <= x(4,10) <= 1
 0 <= x(4,11) <= 1
 0 <= x(4,12) <= 1
 0 <= x(4,13) <= 1
 0 <= x(4,14) <= 1
 0 <= x(4,15) <= 1
 0 <= x(4,16) <= 1
 0 <= x(4,17) <= 1
 0 <= x(4,18) <= 1
 0 <= x(4,19) <= 1
 0 <= x(4,20) <= 1
 0 <= x(4,21) <= 1
 0 <= x(4,22) <= 1
 0 <= x(4,23) <= 1
 0 <= x(4,24) <= 1
 0 <= x(4,25) <= 1
 0 <= x(4,26) <= 1
 0 <= x(4,27) <= 1
 0 <= x(4,28) <= 1
 0 <= x(4,29) <= 1
 0 <= x(4,30) <= 1
 0 <= x(4,31) <= 1
 0 <= x(4,32) <= 1
 0 <= x(4,33) <= 1
 0 <= x(4,34) <= 1
 0 <= x(4,35) <= 1
 0 <= x(4,36) <= 1
 0 <= x(4,37) <= 1
 0 <= x(4,38) <= 1
 0 <= x(4,39) <= 1
 0 <= x(4,40) <= 1
 0 <= x(4,41) <= 1
 0 <= x(4,42) <= 1

Generals
 x(1,1)
 x(1,2)
 x(1,3)
 x(1,4)
 x(1,5)
 x(1,6)
 x(1,7)
 x(1,8)
 x(1,9)
 x(1,10)
 x(1,11)
 x(1,12)
 x(1,13)
 x(1,14)
 x(1,15)
 x(1,16)
 x(1,17)
 x(1,18)
 x(1,19)
 x(1,20)
 x(1,21)
 x(1,22)
 x(1,23)
 x(1,24)
 x(1,25)
 x(1,26)
 x(1,27)
 x(1,28)
 x(1,29)
 x(1,30)
 x(1,31)
 x(1,32)
 x(1,33)
 x(1,34)
 x(1,35)
 x(1,36)
 x(1,37)
 x(1,38)
 x(1,39)
 x(1,40)
 x(1,41)
 x(1,42)
 x(2,1)
 x(2,2)
 x(2,3)
 x(2,4)
 x(2,5)
 x(2,6)
 x(2,7)
 x(2,8)
 x(2,9)
 x(2,10)
 x(2,11)
 x(2,12)
 x(2,13)
 x(2,14)
 x(2,15)
 x(2,16)
 x(2,17)
 x(2,18)
 x(2,19)
 x(2,20)
 x(2,21)
 x(2,22)
 x(2,23)
 x(2,24)
 x(2,25)
 x(2,26)
 x(2,27)
 x(2,28)
 x(2,29)
 x(2,30)
 x(2,31)
 x(2,32)
 x(2,33)
 x(2,34)
 x(2,35)
 x(2,36)
 x(2,37)
 x(2,38)
 x(2,39)
 x(2,40)
 x(2,41)
 x(2,42)
 x(3,1)
 x(3,2)
 x(3,3)
 x(3,4)
 x(3,5)
 x(3,6)
 x(3,7)
 x(3,8)
 x(3,9)
 x(3,10)
 x(3,11)
 x(3,12)
 x(3,13)
 x(3,14)
 x(3,15)
 x(3,16)
 x(3,17)
 x(3,18)
 x(3,19)
 x(3,20)
 x(3,21)
 x(3,22)
 x(3,23)
 x(3,24)
 x(3,25)
 x(3,26)
 x(3,27)
 x(3,28)
 x(3,29)
 x(3,30)
 x(3,31)
 x(3,32)
 x(3,33)
 x(3,34)
 x(3,35)
 x(3,36)
 x(3,37)
 x(3,38)
 x(3,39)
 x(3,40)
 x(3,41)
 x(3,42)
 x(4,1)
 x(4,2)
 x(4,3)
 x(4,4)
 x(4,5)
 x(4,6)
 x(4,7)
 x(4,8)
 x(4,9)
 x(4,10)
 x(4,11)
 x(4,12)
 x(4,13)
 x(4,14)
 x(4,15)
 x(4,16)
 x(4,17)
 x(4,18)
 x(4,19)
 x(4,20)
 x(4,21)
 x(4,22)
 x(4,23)
 x(4,24)
 x(4,25)
 x(4,26)
 x(4,27)
 x(4,28)
 x(4,29)
 x(4,30)
 x(4,31)
 x(4,32)
 x(4,33)
 x(4,34)
 x(4,35)
 x(4,36)
 x(4,37)
 x(4,38)
 x(4,39)
 x(4,40)
 x(4,41)
 x(4,42)

End
