Optimization/timetable_rooms.sol
# Solution for model TotalRooms
# Objective value = 6
x(1,1) 1
x(1,2) 0
x(1,3) 0
x(1,4) 0
x(1,5) 0
x(1,6) 0
x(1,7) 0
x(1,8) 0
x(1,9) 0
x(1,10) 0
x(1,11) 0
x(1,12) 0
x(1,13) 0
x(1,14) 0
x(1,15) 0
x(1,16) 0
x(1,17) 0
x(1,18) 0
x(1,19) 0
x(1,20) 0
x(1,21) 0
x(1,22) 0
x(1,23) 0
x(1,24) 0
x(1,25) 0
x(1,26) 0
x(1,27) 0
x(1,28) 0
x(1,29) 0
x(1,30) 0
x(1,31) 0
x(1,32) 0
x(1,33) 0
x(1,34) 0
x(1,35) 0
x(1,36) 0
x(1,37) 0
x(1,38) 0
x(1,39) 0
x(1,40) 0
x(1,41) 0
x(1,42) 0
x(2,1) 0
x(2,2) 0
x(2,3) 0
x(2,4) 0
x(2,5) 0
x(2,6) 0
x(2,7) 0
x(2,8) 0
x(2,9) 0
x(2,10) 0
x(2,11) 0
x(2,12) 0
x(2,13) 0
x(2,14) 0
x(2,15) 0
x(2,16) 0
x(2,17) 0
x(2,18) 0
x(2,19) 0
x(2,20) 0
x(2,21) 0
x(2,22) 0
x(2,23) 0
x(2,24) 0
x(2,25) 0
x(2,26) 0
x(2,27) 0
x(2,28) 0
x(2,29) 0
x(2,30) 0
x(2,31) 0
x(2,32) 0
x(2,33) 0
x(2,34) 0
x(2,35) 0
x(2,36) 0
x(2,37) 0
x(2,38) 0
x(2,39) 0
x(2,40) 0
x(2,41) 1
x(2,42) 0
x(3,1) 0
x(3,2) 1
x(3,3) 0
x(3,4) 0
x(3,5) 0
x(3,6) 0
x(3,7) 0
x(3,8) 0
x(3,9) 0
x(3,10) 0
x(3,11) 0
x(3,12) 0
x(3,13) 0
x(3,14) 0
x(3,15) 0
x(3,16) 0
x(3,17) 0
x(3,18) 0
x(3,19) 0
x(3,20) 0
x(3,21) 0
x(3,22) 0
x(3,23) 0
x(3,24) 0
x(3,25) 0
x(3,26) 0
x(3,27) 0
x(3,28) 0
x(3,29) 0
x(3,30) 0
x(3,31) 0
x(3,32) 0
x(3,33) 0
x(3,34) 0
x(3,35) 0
x(3,36) 0
x(3,37) 0
x(3,38) 0
x(3,39) 0
x(3,40) 0
x(3,41) 0
x(3,42) 0
x(4,1) 0
x(4,2) 0
x(4,3) 0
x(4,4) 0
x(4,5) 0
x(4,6) 0
x(4,7) 0
x(4,8) 0
x(4,9) 0
x(4,10) 0
x(4,11) 0
x(4,12) 0
x(4,13) 0
x(4,14) 0
x(4,15) 0
x(4,16) 0
x(4,17) 0
x(4,18) 0
x(4,19) 0
x(4,20) 0
x(4,21) 0
x(4,22) 0
x(4,23) 1
x(4,24) 0
x(4,25) 1
x(4,26) 0
x(4,27) 0
x(4,28) 0
x(4,29) 0
x(4,30) 0
x(4,31) 0
x(4,32) 0
x(4,33) 0
x(4,34) 0
x(4,35) 0
x(4,36) 0
x(4,37) 0
x(4,38) 0
x(4,39) 0
x(4,40) 0
x(4,41) 0
x(4,42) 1
